95 63 33 31 29 27 30 28 26 34 50 32 89 
71 41 38 40 35 37 43 68 
92 67 62 85 76 51 20 24 48 25 77 58 
65 59 75 86 99 53 78 60 55 
14 47 16 15 12 11 9 87 97 74 66 
5 45 2 98 82 52 64 84 94 93 
69 88 73 79 7 6 8 46 3 1 4 100 70 
90 
83 23 21 18 19 49 22 57 10 13 17 
72 36 39 42 44 61 81 54 96 56 91 80 
